; benchmark generated from python API
(set-info :status unknown)
(declare-datatypes ((RealState 0)) (((RMk1 (rval1 Real)) (RMk2 (rval2 Real)))))
 (declare-fun yuscore2dollarskuscore2 () Real)
(declare-fun t1uscore0dollarskuscore1 () Real)
(declare-fun stuscore2dollarskuscore2 () Real)
(assert
 (let (($x156 (exists ((ts1uscore1_st RealState) (val!221 Real) )(let (($x85 (= stuscore2dollarskuscore2 3.0)))
 (let (($x209 (= stuscore2dollarskuscore2 1.0)))
 (let (($x213 (or (or $x209 $x85) (<= (+ t1uscore0dollarskuscore1 yuscore2dollarskuscore2) 12.0))))
 (let (($x96 (<= yuscore2dollarskuscore2 12.0)))
 (let (($x204 (>= yuscore2dollarskuscore2 1.0)))
 (let (($x157 (= stuscore2dollarskuscore2 0.0)))
 (let (($x154 (< yuscore2dollarskuscore2 10.0)))
 (let (($x225 (>= t1uscore0dollarskuscore1 0.0)))
 (let (($x20 (<= (+ (rval2 ts1uscore1_st) yuscore2dollarskuscore2) 10.0)))
 (let (($x66 (and (<= 0.0 (rval2 ts1uscore1_st)) (<= (rval2 ts1uscore1_st) t1uscore0dollarskuscore1))))
 (let (($x190 (and (and (and (and (and (=> $x66 $x20) $x225) $x154) $x157) $x204) $x96)))
 (let (($x94 (not (= ts1uscore1_st (RMk1 val!221)))))
 (and $x94 (=> $x190 $x213)))))))))))))))
 ))
 (not $x156)))
(check-sat)
